NAME PortOpt_n10_m4_inst_0
ROWS
 N  OBJ
 E  budget  
 L  return  
 L  uncertain_risk
 L  fixed_risk
COLUMNS
    asset[0]  budget    1
    asset[0]  return    -1.3727172029323207e+00
    asset[1]  budget    1
    asset[1]  return    -3.9007166471605719e+00
    asset[2]  budget    1
    asset[2]  return    -1.6955523732186768e+00
    asset[3]  budget    1
    asset[3]  return    -3.5534909345133343e+00
    asset[4]  budget    1
    asset[4]  return    -1.1808747212330113e+00
    asset[5]  budget    1
    asset[5]  return    -1.2318552919457177e+00
    asset[6]  budget    1
    asset[6]  return    -1.5880889016205084e+00
    asset[7]  budget    1
    asset[7]  return    -2.4958040202420784e+00
    asset[8]  budget    1
    asset[8]  return    -3.1536765262168132e+00
    asset[9]  budget    1
    asset[9]  return    -1.9656617042936242e+00
    return_var  OBJ       -1
    return_var  return    1
    uncertain_risk_var  OBJ       1
    uncertain_risk_var  uncertain_risk  -1
    fixed_risk_var  OBJ       1
    fixed_risk_var  fixed_risk  -1
RHS
    RHS1      budget    1
BOUNDS
 FR BND1      asset[0]
 FR BND1      asset[1]
 FR BND1      asset[2]
 FR BND1      asset[3]
 FR BND1      asset[4]
 FR BND1      asset[5]
 FR BND1      asset[6]
 FR BND1      asset[7]
 FR BND1      asset[8]
 FR BND1      asset[9]
 FR BND1      return_var
 FR BND1      uncertain_risk_var
 FR BND1      fixed_risk_var
QCMATRIX   uncertain_risk
    asset[0]  asset[0]  6.3718977361254453e-02
    asset[0]  asset[1]  6.4758447128609176e-02
    asset[1]  asset[0]  6.4758447128609176e-02
    asset[0]  asset[2]  4.4874503882838222e-02
    asset[2]  asset[0]  4.4874503882838222e-02
    asset[0]  asset[3]  1.5289039602205200e-02
    asset[3]  asset[0]  1.5289039602205200e-02
    asset[0]  asset[4]  6.9213088549343839e-03
    asset[4]  asset[0]  6.9213088549343839e-03
    asset[0]  asset[5]  -4.2556956407696966e-02
    asset[5]  asset[0]  -4.2556956407696966e-02
    asset[0]  asset[6]  9.8793775901776126e-02
    asset[6]  asset[0]  9.8793775901776126e-02
    asset[0]  asset[7]  -6.2725424700217497e-02
    asset[7]  asset[0]  -6.2725424700217497e-02
    asset[0]  asset[8]  -5.0733379341175680e-02
    asset[8]  asset[0]  -5.0733379341175680e-02
    asset[0]  asset[9]  1.3839892170005306e-02
    asset[9]  asset[0]  1.3839892170005306e-02
    asset[1]  asset[1]  1.8741799560655220e-01
    asset[1]  asset[2]  4.5238572585087330e-02
    asset[2]  asset[1]  4.5238572585087330e-02
    asset[1]  asset[3]  4.3258176825170670e-02
    asset[3]  asset[1]  4.3258176825170670e-02
    asset[1]  asset[4]  5.0029288959757640e-02
    asset[4]  asset[1]  5.0029288959757640e-02
    asset[1]  asset[5]  -6.7153822318355927e-02
    asset[5]  asset[1]  -6.7153822318355927e-02
    asset[1]  asset[6]  7.9843828194768679e-02
    asset[6]  asset[1]  7.9843828194768679e-02
    asset[1]  asset[7]  -1.8992913284002327e-01
    asset[7]  asset[1]  -1.8992913284002327e-01
    asset[1]  asset[8]  2.4216963050194405e-02
    asset[8]  asset[1]  2.4216963050194405e-02
    asset[1]  asset[9]  -1.7085398437836422e-02
    asset[9]  asset[1]  -1.7085398437836422e-02
    asset[2]  asset[2]  3.6990113495030022e-02
    asset[2]  asset[3]  6.7737950865293453e-03
    asset[3]  asset[2]  6.7737950865293453e-03
    asset[2]  asset[4]  -1.3831727466572575e-03
    asset[4]  asset[2]  -1.3831727466572575e-03
    asset[2]  asset[5]  -3.7120051874535931e-02
    asset[5]  asset[2]  -3.7120051874535931e-02
    asset[2]  asset[6]  8.5755134027242497e-02
    asset[6]  asset[2]  8.5755134027242497e-02
    asset[2]  asset[7]  -4.0797976221642052e-02
    asset[7]  asset[2]  -4.0797976221642052e-02
    asset[2]  asset[8]  -5.2758918775779692e-02
    asset[8]  asset[2]  -5.2758918775779692e-02
    asset[2]  asset[9]  1.5655438272482565e-02
    asset[9]  asset[2]  1.5655438272482565e-02
    asset[3]  asset[3]  1.5459798213517483e-02
    asset[3]  asset[4]  1.5752732356357210e-02
    asset[4]  asset[3]  1.5752732356357210e-02
    asset[3]  asset[5]  -8.3520638629874314e-03
    asset[5]  asset[3]  -8.3520638629874314e-03
    asset[3]  asset[6]  1.2745881506877554e-02
    asset[6]  asset[3]  1.2745881506877554e-02
    asset[3]  asset[7]  -3.4473726052332107e-02
    asset[7]  asset[3]  -3.4473726052332107e-02
    asset[3]  asset[8]  1.9231844632363923e-02
    asset[8]  asset[3]  1.9231844632363923e-02
    asset[3]  asset[9]  -5.7548326150799111e-03
    asset[9]  asset[3]  -5.7548326150799111e-03
    asset[4]  asset[4]  2.2934029744358327e-02
    asset[4]  asset[5]  -4.9811823636525844e-03
    asset[5]  asset[4]  -4.9811823636525844e-03
    asset[4]  asset[6]  -1.5197945903806782e-02
    asset[6]  asset[4]  -1.5197945903806782e-02
    asset[4]  asset[7]  -5.5520035916707400e-02
    asset[7]  asset[4]  -5.5520035916707400e-02
    asset[4]  asset[8]  4.0280272352540572e-02
    asset[8]  asset[4]  4.0280272352540572e-02
    asset[4]  asset[9]  -1.6259447973349217e-02
    asset[9]  asset[4]  -1.6259447973349217e-02
    asset[5]  asset[5]  4.4423843456207139e-02
    asset[5]  asset[6]  -7.9294690628430448e-02
    asset[6]  asset[5]  -7.9294690628430448e-02
    asset[5]  asset[7]  7.1709009269194740e-02
    asset[7]  asset[5]  7.1709009269194740e-02
    asset[5]  asset[8]  4.3032648179280542e-02
    asset[8]  asset[5]  4.3032648179280542e-02
    asset[5]  asset[9]  -9.1549253107949639e-03
    asset[9]  asset[5]  -9.1549253107949639e-03
    asset[6]  asset[6]  2.1606311289036703e-01
    asset[6]  asset[7]  -4.3232809580932785e-02
    asset[7]  asset[6]  -4.3232809580932785e-02
    asset[6]  asset[8]  -1.3775927411041491e-01
    asset[8]  asset[6]  -1.3775927411041491e-01
    asset[6]  asset[9]  4.8752126574141963e-02
    asset[9]  asset[6]  4.8752126574141963e-02
    asset[7]  asset[7]  2.4466956270848894e-01
    asset[7]  asset[8]  -2.9570685007026021e-02
    asset[8]  asset[7]  -2.9570685007026021e-02
    asset[7]  asset[9]  3.1750164033299048e-02
    asset[9]  asset[7]  3.1750164033299048e-02
    asset[8]  asset[8]  1.4144381983811954e-01
    asset[8]  asset[9]  -4.6918098414231627e-02
    asset[9]  asset[8]  -4.6918098414231627e-02
    asset[9]  asset[9]  1.9178046241789905e-02
QCMATRIX   fixed_risk
    asset[0]  asset[0]  7.2951459635303088e-03
    asset[1]  asset[1]  1.6776200164851828e-02
    asset[2]  asset[2]  3.7257555494373410e-03
    asset[3]  asset[3]  1.7784243139234641e-03
    asset[4]  asset[4]  2.4335238319129027e-03
    asset[5]  asset[5]  4.5506863230843483e-03
    asset[6]  asset[6]  1.8792508167500589e-02
    asset[7]  asset[7]  2.7432263955490366e-02
    asset[8]  asset[8]  1.4883759879660112e-02
    asset[9]  asset[9]  1.9710994479761397e-03
ENDATA
